TCS_Benchmarks/redos_fix/snort3_output_distinct_4505_4504_0_0.smt2
(set-logic QF_S)
(declare-const x String)
(assert (str.in.re x (re.inter (re.* (re.comp  (re.union  (str.to.re "\u{0a}")  (str.to.re "\u{0d}"))) )  (re.++ (re.* (re.comp  (re.union  (str.to.re "\u{0a}")  (str.to.re "\u{0d}"))) )  (re.union  (re.++ (re.range "\u{41}" "\u{5a}") (re.++ (re.range "\u{41}" "\u{5a}") (re.++ (re.range "\u{41}" "\u{5a}") (re.++ (re.range "\u{41}" "\u{5a}") (re.range "\u{41}" "\u{5a}"))))) (re.union  (re.++ (re.range "\u{41}" "\u{5a}")   (re.++ (re.range "\u{41}" "\u{5a}") (re.++ (re.range "\u{41}" "\u{5a}") (re.++ (re.range "\u{41}" "\u{5a}") (re.++ (re.range "\u{41}" "\u{5a}") (re.range "\u{41}" "\u{5a}")))))) (re.union  (re.++ (re.range "\u{41}" "\u{5a}")   (re.++ (re.range "\u{41}" "\u{5a}")   (re.++ (re.range "\u{41}" "\u{5a}") (re.++ (re.range "\u{41}" "\u{5a}") (re.++ (re.range "\u{41}" "\u{5a}") (re.++ (re.range "\u{41}" "\u{5a}") (re.range "\u{41}" "\u{5a}"))))))) (re.union  (re.++ (re.range "\u{41}" "\u{5a}")   (re.++ (re.range "\u{41}" "\u{5a}")   (re.++ (re.range "\u{41}" "\u{5a}")   (re.++ (re.range "\u{41}" "\u{5a}") (re.++ (re.range "\u{41}" "\u{5a}") (re.++ (re.range "\u{41}" "\u{5a}") (re.++ (re.range "\u{41}" "\u{5a}") (re.range "\u{41}" "\u{5a}")))))))) (re.union  (re.++ (re.range "\u{41}" "\u{5a}")   (re.++ (re.range "\u{41}" "\u{5a}")   (re.++ (re.range "\u{41}" "\u{5a}")   (re.++ (re.range "\u{41}" "\u{5a}")   (re.++ (re.range "\u{41}" "\u{5a}") (re.++ (re.range "\u{41}" "\u{5a}") (re.++ (re.range "\u{41}" "\u{5a}") (re.++ (re.range "\u{41}" "\u{5a}") (re.range "\u{41}" "\u{5a}")))))))))  (re.++ (re.range "\u{41}" "\u{5a}")   (re.++ (re.range "\u{41}" "\u{5a}")   (re.++ (re.range "\u{41}" "\u{5a}")   (re.++ (re.range "\u{41}" "\u{5a}")   (re.++ (re.range "\u{41}" "\u{5a}")   (re.++ (re.range "\u{41}" "\u{5a}") (re.++ (re.range "\u{41}" "\u{5a}") (re.++ (re.range "\u{41}" "\u{5a}") (re.++ (re.range "\u{41}" "\u{5a}") (re.range "\u{41}" "\u{5a}"))))))))))))))))  (re.union  (re.++ (re.range "\u{41}" "\u{5a}") (re.++ (re.range "\u{41}" "\u{5a}") (re.++ (re.range "\u{41}" "\u{5a}") (re.++ (re.range "\u{41}" "\u{5a}") (re.range "\u{41}" "\u{5a}"))))) (re.union  (re.++ (re.range "\u{41}" "\u{5a}")   (re.++ (re.range "\u{41}" "\u{5a}") (re.++ (re.range "\u{41}" "\u{5a}") (re.++ (re.range "\u{41}" "\u{5a}") (re.++ (re.range "\u{41}" "\u{5a}") (re.range "\u{41}" "\u{5a}")))))) (re.union  (re.++ (re.range "\u{41}" "\u{5a}")   (re.++ (re.range "\u{41}" "\u{5a}")   (re.++ (re.range "\u{41}" "\u{5a}") (re.++ (re.range "\u{41}" "\u{5a}") (re.++ (re.range "\u{41}" "\u{5a}") (re.++ (re.range "\u{41}" "\u{5a}") (re.range "\u{41}" "\u{5a}"))))))) (re.union  (re.++ (re.range "\u{41}" "\u{5a}")   (re.++ (re.range "\u{41}" "\u{5a}")   (re.++ (re.range "\u{41}" "\u{5a}")   (re.++ (re.range "\u{41}" "\u{5a}") (re.++ (re.range "\u{41}" "\u{5a}") (re.++ (re.range "\u{41}" "\u{5a}") (re.++ (re.range "\u{41}" "\u{5a}") (re.range "\u{41}" "\u{5a}")))))))) (re.union  (re.++ (re.range "\u{41}" "\u{5a}")   (re.++ (re.range "\u{41}" "\u{5a}")   (re.++ (re.range "\u{41}" "\u{5a}")   (re.++ (re.range "\u{41}" "\u{5a}")   (re.++ (re.range "\u{41}" "\u{5a}") (re.++ (re.range "\u{41}" "\u{5a}") (re.++ (re.range "\u{41}" "\u{5a}") (re.++ (re.range "\u{41}" "\u{5a}") (re.range "\u{41}" "\u{5a}")))))))))  (re.++ (re.range "\u{41}" "\u{5a}")   (re.++ (re.range "\u{41}" "\u{5a}")   (re.++ (re.range "\u{41}" "\u{5a}")   (re.++ (re.range "\u{41}" "\u{5a}")   (re.++ (re.range "\u{41}" "\u{5a}")   (re.++ (re.range "\u{41}" "\u{5a}") (re.++ (re.range "\u{41}" "\u{5a}") (re.++ (re.range "\u{41}" "\u{5a}") (re.++ (re.range "\u{41}" "\u{5a}") (re.range "\u{41}" "\u{5a}"))))))))))))))) )))
(check-sat)
(get-model)