TCS_Benchmarks/redos_fix/snort3_output_distinct_4505_4504_0_0.txt
[^
]*
([^
]*)([A-Z]{5,10})
[A-Z]{5,10}